NAME : berlin52-C-3-0-b.8016.tour
COMMENT : Length = 8016
COMMENT : Found by LKH-3 [Keld Helsgaun] Tue Jul 30 13:14:05 2024
TYPE : TOUR
DIMENSION : 52
TOUR_SECTION
1
35
36
39
34
44
16
29
50
20
30
23
21
42
2
7
17
3
18
31
22
49
32
45
19
41
8
9
10
43
33
51
11
52
14
13
47
26
27
28
12
25
4
6
15
5
24
48
38
40
37
46
-1
EOF
